data;

param barcos := 5;
param tipoTripulante := 2;
param custos := 1 50, 2 70, 3 100, 4 90, 5 150;
param frota := 1 4, 2 8, 3 3, 4 5, 5 2;
param equipe := 1 12, 2 25;
param necessidade : 1 2 :=
				1 1 1 
				2 1 2 
				3 1 3 
				4 1 2
				5 1 4;